21861
37,5,96,78,52,48,100,41,71,14,3,43,46,29,30,39,85,68,81,25,51,87,57,9,7,34,83,55,12,20,27,86,35,62,60,77,23,98,45,91,47,32,11,15,17,59,74,21,72,10,84,36,99,38,24,18,94,88,16,22,70,66,26,65,4,97,56,80,31,89,42,8,92,75,19,53,79,90,49,6,63,1,93,28,67,58,61,69,73,50,44,64,40,54,2,82,95,13,76,33,37
